c Standarized MaxSat Instance
c{
c "sha1sum": "23fe049e7334e52a62a03ffd457be2f98874bd8d",
c "nvars": 60,
c "ncls": 1120,
c "nhards": 0,
c "nhard_len_stats":
c    { "min": 0, "max": 0, "ave": 0.00,
c      "stddev": 0.00 },
c "nsofts": 1120,
c "nsoft_len_stats":
c    { "min": 2, "max": 2, "ave": 2.00,
c      "stddev": 0.00 },
c "nsoft_wts": 10,
c "soft_wt_stats":
c    { "min": 1, "max": 10, "ave": 5.65,
c      "stddev": 2.81 }
c}
c------------------------------------------------------------
c Generated after 1 tries
c Graph with 60 nodes and 560 edges, Max edges:1770
p wcnf 60 1120 6331
9 1 5 0
9 -1 -5 0
4 1 6 0
4 -1 -6 0
8 1 8 0
8 -1 -8 0
8 1 17 0
8 -1 -17 0
10 1 18 0
10 -1 -18 0
2 1 19 0
2 -1 -19 0
4 1 21 0
4 -1 -21 0
8 1 34 0
8 -1 -34 0
3 1 35 0
3 -1 -35 0
6 1 36 0
6 -1 -36 0
5 1 46 0
5 -1 -46 0
7 1 50 0
7 -1 -50 0
4 1 53 0
4 -1 -53 0
6 1 55 0
6 -1 -55 0
10 1 57 0
10 -1 -57 0
10 1 59 0
10 -1 -59 0
7 1 60 0
7 -1 -60 0
8 2 5 0
8 -2 -5 0
2 2 6 0
2 -2 -6 0
7 2 9 0
7 -2 -9 0
1 2 12 0
1 -2 -12 0
3 2 15 0
3 -2 -15 0
2 2 16 0
2 -2 -16 0
9 2 20 0
9 -2 -20 0
2 2 22 0
2 -2 -22 0
5 2 28 0
5 -2 -28 0
2 2 30 0
2 -2 -30 0
2 2 32 0
2 -2 -32 0
10 2 33 0
10 -2 -33 0
3 2 39 0
3 -2 -39 0
6 2 46 0
6 -2 -46 0
9 2 47 0
9 -2 -47 0
7 3 10 0
7 -3 -10 0
3 3 14 0
3 -3 -14 0
7 3 15 0
7 -3 -15 0
6 3 16 0
6 -3 -16 0
5 3 17 0
5 -3 -17 0
10 3 18 0
10 -3 -18 0
3 3 23 0
3 -3 -23 0
8 3 25 0
8 -3 -25 0
6 3 29 0
6 -3 -29 0
8 3 32 0
8 -3 -32 0
5 3 35 0
5 -3 -35 0
9 3 42 0
9 -3 -42 0
3 3 43 0
3 -3 -43 0
4 3 44 0
4 -3 -44 0
9 3 45 0
9 -3 -45 0
10 3 46 0
10 -3 -46 0
1 3 48 0
1 -3 -48 0
10 3 52 0
10 -3 -52 0
6 3 53 0
6 -3 -53 0
1 3 55 0
1 -3 -55 0
2 3 56 0
2 -3 -56 0
7 3 57 0
7 -3 -57 0
9 3 59 0
9 -3 -59 0
4 4 8 0
4 -4 -8 0
1 4 11 0
1 -4 -11 0
1 4 15 0
1 -4 -15 0
5 4 20 0
5 -4 -20 0
1 4 21 0
1 -4 -21 0
3 4 22 0
3 -4 -22 0
10 4 23 0
10 -4 -23 0
10 4 25 0
10 -4 -25 0
9 4 35 0
9 -4 -35 0
3 4 36 0
3 -4 -36 0
6 4 41 0
6 -4 -41 0
4 4 44 0
4 -4 -44 0
8 4 46 0
8 -4 -46 0
6 4 51 0
6 -4 -51 0
7 4 53 0
7 -4 -53 0
6 4 55 0
6 -4 -55 0
1 4 56 0
1 -4 -56 0
5 4 59 0
5 -4 -59 0
10 4 60 0
10 -4 -60 0
10 5 7 0
10 -5 -7 0
8 5 10 0
8 -5 -10 0
3 5 15 0
3 -5 -15 0
8 5 16 0
8 -5 -16 0
7 5 18 0
7 -5 -18 0
4 5 19 0
4 -5 -19 0
7 5 21 0
7 -5 -21 0
2 5 22 0
2 -5 -22 0
5 5 25 0
5 -5 -25 0
9 5 30 0
9 -5 -30 0
9 5 32 0
9 -5 -32 0
4 5 36 0
4 -5 -36 0
3 5 38 0
3 -5 -38 0
9 5 43 0
9 -5 -43 0
4 5 46 0
4 -5 -46 0
7 5 51 0
7 -5 -51 0
10 5 52 0
10 -5 -52 0
6 5 53 0
6 -5 -53 0
7 5 60 0
7 -5 -60 0
9 6 16 0
9 -6 -16 0
5 6 21 0
5 -6 -21 0
10 6 24 0
10 -6 -24 0
4 6 31 0
4 -6 -31 0
9 6 35 0
9 -6 -35 0
7 6 36 0
7 -6 -36 0
10 6 37 0
10 -6 -37 0
5 6 38 0
5 -6 -38 0
3 6 40 0
3 -6 -40 0
10 6 41 0
10 -6 -41 0
10 6 44 0
10 -6 -44 0
2 6 50 0
2 -6 -50 0
9 6 53 0
9 -6 -53 0
7 7 16 0
7 -7 -16 0
5 7 21 0
5 -7 -21 0
7 7 24 0
7 -7 -24 0
3 7 25 0
3 -7 -25 0
8 7 28 0
8 -7 -28 0
4 7 31 0
4 -7 -31 0
5 7 35 0
5 -7 -35 0
3 7 39 0
3 -7 -39 0
2 7 46 0
2 -7 -46 0
3 7 50 0
3 -7 -50 0
6 7 52 0
6 -7 -52 0
5 7 55 0
5 -7 -55 0
2 7 58 0
2 -7 -58 0
10 8 9 0
10 -8 -9 0
2 8 12 0
2 -8 -12 0
2 8 16 0
2 -8 -16 0
5 8 17 0
5 -8 -17 0
8 8 21 0
8 -8 -21 0
10 8 22 0
10 -8 -22 0
10 8 25 0
10 -8 -25 0
7 8 26 0
7 -8 -26 0
4 8 31 0
4 -8 -31 0
8 8 37 0
8 -8 -37 0
4 8 39 0
4 -8 -39 0
3 8 42 0
3 -8 -42 0
3 8 44 0
3 -8 -44 0
6 8 45 0
6 -8 -45 0
3 8 46 0
3 -8 -46 0
2 8 49 0
2 -8 -49 0
8 8 50 0
8 -8 -50 0
2 8 52 0
2 -8 -52 0
8 8 53 0
8 -8 -53 0
2 8 56 0
2 -8 -56 0
8 8 57 0
8 -8 -57 0
1 8 60 0
1 -8 -60 0
10 9 10 0
10 -9 -10 0
1 9 12 0
1 -9 -12 0
6 9 17 0
6 -9 -17 0
2 9 23 0
2 -9 -23 0
3 9 25 0
3 -9 -25 0
8 9 26 0
8 -9 -26 0
8 9 29 0
8 -9 -29 0
7 9 31 0
7 -9 -31 0
10 9 32 0
10 -9 -32 0
7 9 34 0
7 -9 -34 0
8 9 39 0
8 -9 -39 0
1 9 42 0
1 -9 -42 0
2 9 43 0
2 -9 -43 0
6 9 47 0
6 -9 -47 0
1 9 59 0
1 -9 -59 0
1 10 12 0
1 -10 -12 0
3 10 13 0
3 -10 -13 0
5 10 15 0
5 -10 -15 0
9 10 22 0
9 -10 -22 0
6 10 25 0
6 -10 -25 0
8 10 28 0
8 -10 -28 0
1 10 43 0
1 -10 -43 0
2 10 49 0
2 -10 -49 0
10 10 53 0
10 -10 -53 0
3 10 56 0
3 -10 -56 0
9 11 16 0
9 -11 -16 0
2 11 26 0
2 -11 -26 0
10 11 29 0
10 -11 -29 0
1 11 30 0
1 -11 -30 0
9 11 33 0
9 -11 -33 0
1 11 34 0
1 -11 -34 0
1 11 36 0
1 -11 -36 0
10 11 38 0
10 -11 -38 0
6 11 39 0
6 -11 -39 0
2 11 44 0
2 -11 -44 0
2 11 46 0
2 -11 -46 0
4 11 50 0
4 -11 -50 0
10 11 55 0
10 -11 -55 0
9 11 58 0
9 -11 -58 0
4 11 60 0
4 -11 -60 0
6 12 18 0
6 -12 -18 0
6 12 26 0
6 -12 -26 0
5 12 27 0
5 -12 -27 0
7 12 31 0
7 -12 -31 0
1 12 32 0
1 -12 -32 0
6 12 38 0
6 -12 -38 0
8 12 43 0
8 -12 -43 0
4 12 47 0
4 -12 -47 0
10 12 50 0
10 -12 -50 0
6 12 53 0
6 -12 -53 0
9 12 60 0
9 -12 -60 0
8 13 15 0
8 -13 -15 0
7 13 19 0
7 -13 -19 0
1 13 22 0
1 -13 -22 0
8 13 28 0
8 -13 -28 0
9 13 29 0
9 -13 -29 0
10 13 30 0
10 -13 -30 0
9 13 31 0
9 -13 -31 0
9 13 34 0
9 -13 -34 0
10 13 38 0
10 -13 -38 0
8 13 40 0
8 -13 -40 0
10 13 41 0
10 -13 -41 0
10 13 42 0
10 -13 -42 0
7 13 43 0
7 -13 -43 0
5 13 53 0
5 -13 -53 0
2 14 15 0
2 -14 -15 0
9 14 16 0
9 -14 -16 0
9 14 20 0
9 -14 -20 0
1 14 21 0
1 -14 -21 0
7 14 23 0
7 -14 -23 0
3 14 28 0
3 -14 -28 0
7 14 29 0
7 -14 -29 0
3 14 33 0
3 -14 -33 0
8 14 34 0
8 -14 -34 0
4 14 36 0
4 -14 -36 0
4 14 40 0
4 -14 -40 0
3 14 42 0
3 -14 -42 0
1 14 43 0
1 -14 -43 0
7 14 44 0
7 -14 -44 0
3 14 46 0
3 -14 -46 0
7 14 55 0
7 -14 -55 0
6 14 60 0
6 -14 -60 0
10 15 23 0
10 -15 -23 0
3 15 30 0
3 -15 -30 0
6 15 33 0
6 -15 -33 0
8 15 34 0
8 -15 -34 0
2 15 46 0
2 -15 -46 0
5 15 48 0
5 -15 -48 0
6 15 52 0
6 -15 -52 0
10 15 54 0
10 -15 -54 0
5 15 56 0
5 -15 -56 0
4 15 57 0
4 -15 -57 0
9 15 59 0
9 -15 -59 0
5 16 19 0
5 -16 -19 0
1 16 23 0
1 -16 -23 0
4 16 24 0
4 -16 -24 0
6 16 26 0
6 -16 -26 0
9 16 31 0
9 -16 -31 0
3 16 35 0
3 -16 -35 0
7 16 36 0
7 -16 -36 0
5 16 37 0
5 -16 -37 0
5 16 39 0
5 -16 -39 0
4 16 41 0
4 -16 -41 0
8 16 46 0
8 -16 -46 0
2 16 49 0
2 -16 -49 0
7 16 54 0
7 -16 -54 0
1 16 58 0
1 -16 -58 0
5 16 60 0
5 -16 -60 0
7 17 18 0
7 -17 -18 0
7 17 20 0
7 -17 -20 0
7 17 21 0
7 -17 -21 0
4 17 23 0
4 -17 -23 0
2 17 26 0
2 -17 -26 0
7 17 30 0
7 -17 -30 0
7 17 32 0
7 -17 -32 0
8 17 33 0
8 -17 -33 0
4 17 35 0
4 -17 -35 0
8 17 36 0
8 -17 -36 0
3 17 39 0
3 -17 -39 0
10 17 42 0
10 -17 -42 0
7 17 44 0
7 -17 -44 0
7 17 45 0
7 -17 -45 0
3 17 52 0
3 -17 -52 0
6 17 53 0
6 -17 -53 0
1 17 60 0
1 -17 -60 0
3 18 21 0
3 -18 -21 0
9 18 25 0
9 -18 -25 0
7 18 30 0
7 -18 -30 0
1 18 33 0
1 -18 -33 0
2 18 35 0
2 -18 -35 0
4 18 36 0
4 -18 -36 0
6 18 40 0
6 -18 -40 0
6 18 41 0
6 -18 -41 0
7 18 45 0
7 -18 -45 0
3 18 51 0
3 -18 -51 0
8 18 52 0
8 -18 -52 0
3 18 53 0
3 -18 -53 0
4 18 55 0
4 -18 -55 0
2 19 24 0
2 -19 -24 0
10 19 27 0
10 -19 -27 0
1 19 34 0
1 -19 -34 0
9 19 39 0
9 -19 -39 0
4 19 40 0
4 -19 -40 0
2 19 42 0
2 -19 -42 0
5 19 43 0
5 -19 -43 0
10 19 45 0
10 -19 -45 0
10 19 49 0
10 -19 -49 0
8 19 51 0
8 -19 -51 0
7 19 54 0
7 -19 -54 0
2 19 56 0
2 -19 -56 0
7 19 58 0
7 -19 -58 0
4 20 22 0
4 -20 -22 0
8 20 29 0
8 -20 -29 0
10 20 30 0
10 -20 -30 0
10 20 31 0
10 -20 -31 0
9 20 33 0
9 -20 -33 0
3 20 35 0
3 -20 -35 0
8 20 44 0
8 -20 -44 0
6 20 45 0
6 -20 -45 0
3 20 47 0
3 -20 -47 0
10 20 51 0
10 -20 -51 0
10 20 56 0
10 -20 -56 0
9 20 58 0
9 -20 -58 0
5 21 23 0
5 -21 -23 0
6 21 24 0
6 -21 -24 0
2 21 25 0
2 -21 -25 0
3 21 26 0
3 -21 -26 0
9 21 28 0
9 -21 -28 0
5 21 30 0
5 -21 -30 0
5 21 33 0
5 -21 -33 0
9 21 40 0
9 -21 -40 0
5 21 41 0
5 -21 -41 0
3 21 45 0
3 -21 -45 0
2 21 49 0
2 -21 -49 0
7 21 51 0
7 -21 -51 0
8 21 56 0
8 -21 -56 0
2 22 26 0
2 -22 -26 0
7 22 31 0
7 -22 -31 0
5 22 34 0
5 -22 -34 0
9 22 35 0
9 -22 -35 0
8 22 36 0
8 -22 -36 0
2 22 42 0
2 -22 -42 0
3 22 44 0
3 -22 -44 0
5 22 46 0
5 -22 -46 0
2 22 47 0
2 -22 -47 0
2 22 50 0
2 -22 -50 0
4 22 51 0
4 -22 -51 0
4 22 57 0
4 -22 -57 0
10 22 58 0
10 -22 -58 0
10 22 59 0
10 -22 -59 0
7 23 27 0
7 -23 -27 0
9 23 28 0
9 -23 -28 0
9 23 29 0
9 -23 -29 0
5 23 30 0
5 -23 -30 0
4 23 32 0
4 -23 -32 0
4 23 34 0
4 -23 -34 0
7 23 35 0
7 -23 -35 0
7 23 36 0
7 -23 -36 0
3 23 38 0
3 -23 -38 0
2 23 41 0
2 -23 -41 0
1 23 48 0
1 -23 -48 0
2 23 49 0
2 -23 -49 0
7 23 52 0
7 -23 -52 0
4 24 28 0
4 -24 -28 0
3 24 30 0
3 -24 -30 0
4 24 39 0
4 -24 -39 0
1 24 40 0
1 -24 -40 0
5 24 44 0
5 -24 -44 0
10 24 46 0
10 -24 -46 0
6 24 47 0
6 -24 -47 0
3 24 48 0
3 -24 -48 0
7 24 50 0
7 -24 -50 0
8 24 52 0
8 -24 -52 0
5 24 56 0
5 -24 -56 0
2 24 57 0
2 -24 -57 0
9 24 60 0
9 -24 -60 0
7 25 33 0
7 -25 -33 0
6 25 38 0
6 -25 -38 0
3 25 42 0
3 -25 -42 0
6 25 43 0
6 -25 -43 0
5 25 53 0
5 -25 -53 0
9 25 54 0
9 -25 -54 0
4 25 58 0
4 -25 -58 0
3 26 30 0
3 -26 -30 0
4 26 31 0
4 -26 -31 0
8 26 32 0
8 -26 -32 0
7 26 34 0
7 -26 -34 0
10 26 38 0
10 -26 -38 0
4 26 40 0
4 -26 -40 0
9 26 41 0
9 -26 -41 0
2 26 46 0
2 -26 -46 0
5 26 48 0
5 -26 -48 0
1 26 53 0
1 -26 -53 0
8 26 54 0
8 -26 -54 0
8 27 28 0
8 -27 -28 0
3 27 30 0
3 -27 -30 0
2 27 31 0
2 -27 -31 0
9 27 34 0
9 -27 -34 0
8 27 36 0
8 -27 -36 0
1 27 43 0
1 -27 -43 0
5 27 51 0
5 -27 -51 0
10 27 56 0
10 -27 -56 0
8 27 58 0
8 -27 -58 0
3 27 59 0
3 -27 -59 0
5 27 60 0
5 -27 -60 0
9 28 31 0
9 -28 -31 0
1 28 33 0
1 -28 -33 0
1 28 36 0
1 -28 -36 0
4 28 38 0
4 -28 -38 0
4 28 39 0
4 -28 -39 0
7 28 42 0
7 -28 -42 0
9 28 46 0
9 -28 -46 0
2 28 47 0
2 -28 -47 0
1 28 50 0
1 -28 -50 0
1 28 57 0
1 -28 -57 0
5 28 58 0
5 -28 -58 0
8 28 60 0
8 -28 -60 0
7 29 30 0
7 -29 -30 0
5 29 32 0
5 -29 -32 0
2 29 33 0
2 -29 -33 0
6 29 37 0
6 -29 -37 0
6 29 39 0
6 -29 -39 0
6 29 42 0
6 -29 -42 0
6 29 46 0
6 -29 -46 0
4 29 47 0
4 -29 -47 0
4 29 48 0
4 -29 -48 0
9 29 53 0
9 -29 -53 0
5 29 54 0
5 -29 -54 0
2 29 59 0
2 -29 -59 0
7 30 32 0
7 -30 -32 0
6 30 34 0
6 -30 -34 0
7 30 35 0
7 -30 -35 0
6 30 38 0
6 -30 -38 0
3 30 39 0
3 -30 -39 0
9 30 40 0
9 -30 -40 0
1 30 41 0
1 -30 -41 0
1 30 43 0
1 -30 -43 0
10 30 45 0
10 -30 -45 0
2 30 48 0
2 -30 -48 0
5 30 50 0
5 -30 -50 0
3 30 51 0
3 -30 -51 0
9 30 54 0
9 -30 -54 0
3 30 59 0
3 -30 -59 0
4 31 32 0
4 -31 -32 0
9 31 35 0
9 -31 -35 0
4 31 36 0
4 -31 -36 0
9 31 46 0
9 -31 -46 0
7 31 48 0
7 -31 -48 0
1 31 50 0
1 -31 -50 0
3 31 51 0
3 -31 -51 0
8 31 55 0
8 -31 -55 0
7 31 56 0
7 -31 -56 0
9 31 57 0
9 -31 -57 0
4 31 58 0
4 -31 -58 0
3 32 37 0
3 -32 -37 0
2 32 38 0
2 -32 -38 0
7 32 39 0
7 -32 -39 0
2 32 41 0
2 -32 -41 0
7 32 43 0
7 -32 -43 0
8 32 46 0
8 -32 -46 0
8 32 47 0
8 -32 -47 0
3 32 48 0
3 -32 -48 0
5 32 52 0
5 -32 -52 0
4 33 37 0
4 -33 -37 0
5 33 40 0
5 -33 -40 0
3 33 41 0
3 -33 -41 0
4 33 44 0
4 -33 -44 0
6 33 53 0
6 -33 -53 0
2 33 55 0
2 -33 -55 0
6 33 56 0
6 -33 -56 0
1 33 58 0
1 -33 -58 0
4 33 59 0
4 -33 -59 0
4 34 35 0
4 -34 -35 0
4 34 37 0
4 -34 -37 0
8 34 38 0
8 -34 -38 0
3 34 43 0
3 -34 -43 0
7 34 50 0
7 -34 -50 0
6 34 52 0
6 -34 -52 0
10 34 56 0
10 -34 -56 0
7 34 60 0
7 -34 -60 0
9 35 38 0
9 -35 -38 0
7 35 44 0
7 -35 -44 0
4 35 50 0
4 -35 -50 0
7 35 52 0
7 -35 -52 0
1 35 59 0
1 -35 -59 0
6 36 46 0
6 -36 -46 0
9 36 48 0
9 -36 -48 0
7 36 49 0
7 -36 -49 0
7 36 54 0
7 -36 -54 0
6 36 55 0
6 -36 -55 0
5 36 56 0
5 -36 -56 0
4 36 58 0
4 -36 -58 0
8 37 39 0
8 -37 -39 0
9 37 40 0
9 -37 -40 0
7 37 41 0
7 -37 -41 0
2 37 47 0
2 -37 -47 0
1 37 48 0
1 -37 -48 0
1 37 50 0
1 -37 -50 0
7 37 51 0
7 -37 -51 0
2 37 55 0
2 -37 -55 0
7 37 58 0
7 -37 -58 0
8 37 59 0
8 -37 -59 0
6 38 40 0
6 -38 -40 0
1 38 46 0
1 -38 -46 0
1 38 49 0
1 -38 -49 0
4 38 50 0
4 -38 -50 0
3 38 60 0
3 -38 -60 0
7 39 40 0
7 -39 -40 0
9 39 46 0
9 -39 -46 0
2 39 51 0
2 -39 -51 0
4 39 52 0
4 -39 -52 0
7 39 53 0
7 -39 -53 0
9 39 54 0
9 -39 -54 0
7 39 59 0
7 -39 -59 0
4 40 42 0
4 -40 -42 0
9 40 43 0
9 -40 -43 0
2 40 46 0
2 -40 -46 0
2 40 52 0
2 -40 -52 0
6 40 54 0
6 -40 -54 0
9 40 57 0
9 -40 -57 0
7 41 43 0
7 -41 -43 0
10 41 45 0
10 -41 -45 0
2 41 47 0
2 -41 -47 0
4 41 48 0
4 -41 -48 0
8 41 50 0
8 -41 -50 0
9 41 52 0
9 -41 -52 0
6 41 53 0
6 -41 -53 0
8 41 54 0
8 -41 -54 0
10 41 58 0
10 -41 -58 0
3 41 59 0
3 -41 -59 0
10 42 44 0
10 -42 -44 0
6 42 45 0
6 -42 -45 0
10 42 50 0
10 -42 -50 0
5 42 52 0
5 -42 -52 0
6 42 54 0
6 -42 -54 0
10 42 55 0
10 -42 -55 0
8 42 58 0
8 -42 -58 0
9 43 44 0
9 -43 -44 0
6 43 46 0
6 -43 -46 0
7 43 50 0
7 -43 -50 0
10 43 51 0
10 -43 -51 0
10 43 53 0
10 -43 -53 0
4 43 55 0
4 -43 -55 0
9 43 57 0
9 -43 -57 0
6 43 58 0
6 -43 -58 0
7 43 59 0
7 -43 -59 0
8 44 47 0
8 -44 -47 0
8 44 48 0
8 -44 -48 0
8 44 50 0
8 -44 -50 0
3 44 53 0
3 -44 -53 0
7 44 59 0
7 -44 -59 0
5 45 54 0
5 -45 -54 0
2 45 58 0
2 -45 -58 0
8 45 59 0
8 -45 -59 0
9 45 60 0
9 -45 -60 0
9 46 49 0
9 -46 -49 0
7 46 55 0
7 -46 -55 0
5 46 57 0
5 -46 -57 0
7 46 60 0
7 -46 -60 0
6 47 49 0
6 -47 -49 0
7 47 56 0
7 -47 -56 0
6 48 49 0
6 -48 -49 0
2 48 54 0
2 -48 -54 0
6 48 59 0
6 -48 -59 0
1 48 60 0
1 -48 -60 0
8 50 53 0
8 -50 -53 0
6 51 54 0
6 -51 -54 0
9 51 55 0
9 -51 -55 0
6 51 57 0
6 -51 -57 0
2 51 58 0
2 -51 -58 0
5 52 57 0
5 -52 -57 0
6 52 60 0
6 -52 -60 0
1 53 54 0
1 -53 -54 0
9 53 57 0
9 -53 -57 0
4 53 58 0
4 -53 -58 0
7 53 59 0
7 -53 -59 0
5 54 55 0
5 -54 -55 0
2 57 59 0
2 -57 -59 0
5 58 60 0
5 -58 -60 0
